c colouring generated by benchmark framework
p edge 496 11654
v 1 0
v 2 1
v 3 11
v 4 12
v 5 13
v 6 14
v 7 15
v 8 16
v 9 17
v 10 18
v 11 28
v 12 46
v 13 30
v 14 45
v 15 47
v 16 48
v 17 0
v 18 58
v 19 57
v 20 56
v 21 55
v 22 54
v 23 53
v 24 52
v 25 51
v 26 50
v 27 1
v 28 45
v 29 46
v 30 47
v 31 48
v 32 49
v 33 28
v 34 0
v 35 0
v 36 0
v 37 0
v 38 28
v 39 0
v 40 0
v 41 0
v 42 0
v 43 36
v 44 40
v 45 35
v 46 39
v 47 30
v 48 0
v 49 0
v 50 31
v 51 0
v 52 0
v 53 0
v 54 0
v 55 26
v 56 0
v 57 0
v 58 0
v 59 29
v 60 0
v 61 0
v 62 31
v 63 37
v 64 19
v 65 0
v 66 32
v 67 30
v 68 0
v 69 0
v 70 0
v 71 0
v 72 0
v 73 0
v 74 27
v 75 0
v 76 20
v 77 41
v 78 41
v 79 26
v 80 27
v 81 35
v 82 40
v 83 37
v 84 31
v 85 32
v 86 23
v 87 59
v 88 61
v 89 43
v 90 2
v 91 3
v 92 4
v 93 5
v 94 6
v 95 7
v 96 8
v 97 9
v 98 2
v 99 3
v 100 4
v 101 5
v 102 6
v 103 7
v 104 8
v 105 9
v 106 10
v 107 10
v 108 11
v 109 0
v 110 12
v 111 0
v 112 0
v 113 13
v 114 14
v 115 0
v 116 15
v 117 16
v 118 0
v 119 17
v 120 18
v 121 19
v 122 20
v 123 21
v 124 22
v 125 23
v 126 0
v 127 0
v 128 0
v 129 24
v 130 25
v 131 0
v 132 26
v 133 0
v 134 0
v 135 0
v 136 33
v 137 31
v 138 29
v 139 0
v 140 0
v 141 30
v 142 0
v 143 0
v 144 0
v 145 34
v 146 0
v 147 33
v 148 0
v 149 31
v 150 33
v 151 34
v 152 0
v 153 0
v 154 0
v 155 0
v 156 35
v 157 0
v 158 0
v 159 36
v 160 37
v 161 38
v 162 0
v 163 19
v 164 0
v 165 0
v 166 39
v 167 0
v 168 24
v 169 0
v 170 26
v 171 25
v 172 26
v 173 0
v 174 0
v 175 0
v 176 0
v 177 0
v 178 0
v 179 0
v 180 0
v 181 0
v 182 33
v 183 34
v 184 0
v 185 36
v 186 0
v 187 0
v 188 0
v 189 35
v 190 35
v 191 0
v 192 0
v 193 0
v 194 0
v 195 0
v 196 0
v 197 36
v 198 0
v 199 0
v 200 37
v 201 39
v 202 0
v 203 38
v 204 37
v 205 0
v 206 0
v 207 0
v 208 0
v 209 0
v 210 0
v 211 0
v 212 0
v 213 37
v 214 40
v 215 0
v 216 19
v 217 0
v 218 40
v 219 39
v 220 38
v 221 37
v 222 37
v 223 38
v 224 37
v 225 40
v 226 41
v 227 0
v 228 39
v 229 0
v 230 38
v 231 0
v 232 37
v 233 0
v 234 40
v 235 0
v 236 41
v 237 0
v 238 38
v 239 42
v 240 40
v 241 41
v 242 43
v 243 0
v 244 20
v 245 21
v 246 20
v 247 0
v 248 21
v 249 22
v 250 21
v 251 20
v 252 20
v 253 0
v 254 0
v 255 44
v 256 0
v 257 0
v 258 32
v 259 41
v 260 0
v 261 40
v 262 32
v 263 41
v 264 42
v 265 40
v 266 0
v 267 32
v 268 0
v 269 40
v 270 0
v 271 41
v 272 0
v 273 42
v 274 0
v 275 41
v 276 42
v 277 43
v 278 0
v 279 19
v 280 20
v 281 19
v 282 20
v 283 19
v 284 0
v 285 0
v 286 44
v 287 0
v 288 0
v 289 0
v 290 0
v 291 0
v 292 0
v 293 0
v 294 0
v 295 0
v 296 18
v 297 19
v 298 0
v 299 20
v 300 0
v 301 0
v 302 23
v 303 21
v 304 0
v 305 22
v 306 0
v 307 0
v 308 23
v 309 0
v 310 17
v 311 0
v 312 0
v 313 23
v 314 0
v 315 24
v 316 0
v 317 19
v 318 19
v 319 0
v 320 0
v 321 25
v 322 0
v 323 0
v 324 0
v 325 29
v 326 0
v 327 32
v 328 34
v 329 33
v 330 0
v 331 37
v 332 0
v 333 34
v 334 0
v 335 0
v 336 35
v 337 0
v 338 36
v 339 38
v 340 40
v 341 0
v 342 0
v 343 39
v 344 40
v 345 0
v 346 0
v 347 0
v 348 0
v 349 0
v 350 0
v 351 40
v 352 0
v 353 0
v 354 0
v 355 40
v 356 0
v 357 0
v 358 40
v 359 0
v 360 42
v 361 0
v 362 0
v 363 0
v 364 59
v 365 0
v 366 43
v 367 0
v 368 44
v 369 0
v 370 0
v 371 0
v 372 0
v 373 0
v 374 0
v 375 0
v 376 0
v 377 0
v 378 0
v 379 43
v 380 44
v 381 0
v 382 0
v 383 44
v 384 59
v 385 0
v 386 44
v 387 0
v 388 59
v 389 0
v 390 59
v 391 60
v 392 0
v 393 19
v 394 20
v 395 19
v 396 0
v 397 0
v 398 61
v 399 0
v 400 0
v 401 30
v 402 60
v 403 0
v 404 30
v 405 61
v 406 0
v 407 60
v 408 0
v 409 61
v 410 0
v 411 59
v 412 62
v 413 63
v 414 0
v 415 64
v 416 0
v 417 0
v 418 0
v 419 0
v 420 0
v 421 64
v 422 0
v 423 20
v 424 0
v 425 0
v 426 20
v 427 0
v 428 0
v 429 0
v 430 0
v 431 40
v 432 0
v 433 42
v 434 41
v 435 0
v 436 43
v 437 0
v 438 42
v 439 0
v 440 0
v 441 43
v 442 0
v 443 44
v 444 0
v 445 59
v 446 0
v 447 0
v 448 0
v 449 44
v 450 0
v 451 44
v 452 60
v 453 0
v 454 19
v 455 0
v 456 0
v 457 61
v 458 0
v 459 32
v 460 29
v 461 0
v 462 29
v 463 33
v 464 0
v 465 29
v 466 0
v 467 33
v 468 0
v 469 33
v 470 34
v 471 35
v 472 0
v 473 19
v 474 20
v 475 19
v 476 0
v 477 0
v 478 36
v 479 0
v 480 31
v 481 0
v 482 32
v 483 32
v 484 33
v 485 0
v 486 32
v 487 0
v 488 33
v 489 0
v 490 33
v 491 34
v 492 0
v 493 19
v 494 0
v 495 0
v 496 35
